50
10253

40 517
719 917
45 457
811 753
166 31
863 622
197 199
855 873
66 593
753 53
129 655
553 963
890 113
143 326
237 86
758 535
270 207
57 777
857 905
83 923
721 870
775 548
581 435
885 765
261 590
938 246
953 361
505 635
815 914
268 600
918 650
244 889
220 759
423 246
633 367
373 403
358 778
683 36
192 851
256 299
195 269
969 486
551 437
382 805
306 945
99 230
22 934
88 538
10 665
442 400
